
Gurobi 11.0.3 (linux64) logging started Mon Aug 25 15:04:59 2025

Set parameter LogFile to value "/home/yihong/Coding/OR_SUC/SUC_epstheta_results_bigM100000_thread4/case24_ieee_rts_theta0.1_epsilon0.1_gurobi_seed20000_num_gen100_N_WDR50_load_scaling_factor1_proposed_eps_T10quadra_cost_bc1.01.txt"
Set parameter TimeLimit to value 3600
Gurobi Optimizer version 11.0.3 build v11.0.3rc0 (linux64 - "Ubuntu 20.04.6 LTS")

CPU model: AMD EPYC 7532 32-Core Processor, instruction set [SSE2|AVX|AVX2]
Thread count: 64 physical cores, 128 logical processors, using up to 4 threads

Academic license 2399124 - for non-commercial use only - registered to yi___@ed.ac.uk
Optimize a model with 23642 rows, 12451 columns and 547142 nonzeros
Model fingerprint: 0x6d06a986
Model has 1000 quadratic constraints
Variable types: 11451 continuous, 1000 integer (1000 binary)
Coefficient statistics:
  Matrix range     [3e-04, 3e+03]
  QMatrix range    [2e-03, 8e-03]
  QLMatrix range   [2e-02, 6e+01]
  Objective range  [1e+00, 1e+00]
  Bounds range     [1e+00, 1e+00]
  RHS range        [1e+00, 9e+03]
Presolve removed 19438 rows and 5394 columns
Presolve time: 0.16s
Presolved: 4204 rows, 7057 columns, 23468 nonzeros
Presolved model has 1000 quadratic constraint(s)
Variable types: 6057 continuous, 1000 integer (1000 binary)

Root relaxation: objective 1.255130e+04, 3253 iterations, 0.07 seconds (0.08 work units)

    Nodes    |    Current Node    |     Objective Bounds      |     Work
 Expl Unexpl |  Obj  Depth IntInf | Incumbent    BestBd   Gap | It/Node Time

H    0     0                    263552.82081 12551.2997  95.2%     -    0s
*    0     0               0    263552.82081 12551.2997  95.2%     -    0s
     0     0 118408.632    0  398 263552.821 118408.632  55.1%     -    0s
     0     0 238214.401    0   98 263552.821 238214.401  9.61%     -    0s
     0     0 238218.861    0   11 263552.821 238218.861  9.61%     -    0s
     0     0 238267.846    0    8 263552.821 238267.846  9.59%     -    0s
     0     0 238268.153    0    8 263552.821 238268.153  9.59%     -    0s
     0     0 238268.724    0    9 263552.821 238268.724  9.59%     -    0s
     0     0 238268.765    0    9 263552.821 238268.765  9.59%     -    0s
     0     2 238268.765    0    9 263552.821 238268.765  9.59%     -    0s
H   84   121                    238305.09698 238271.593  0.01%  15.9    1s
*   84   121              27    238305.09698 238271.593  0.01%  16.0    1s

Cutting planes:
  Gomory: 63
  Lift-and-project: 4
  Implied bound: 151
  MIR: 25
  Flow cover: 191
  RLT: 167
  Relax-and-lift: 68

Explored 124 nodes (10089 simplex iterations) in 1.65 seconds (1.74 work units)
Thread count was 4 (of 128 available processors)

Solution count 3: 238305 238305 263553 

Optimal solution found (tolerance 1.00e-03)
Warning: max constraint violation (7.3868e-08) exceeds tolerance
Best objective 2.383050969804e+05, best bound 2.382715926457e+05, gap 0.0141%

Gurobi 11.0.3 (linux64) logging started Mon Aug 25 15:05:01 2025

Set parameter LogFile to value "/home/yihong/Coding/OR_SUC/SUC_epstheta_results_bigM100000_thread4/case24_ieee_rts_theta0.1_epsilon0.1_gurobi_seed20000_num_gen100_N_WDR50_load_scaling_factor1_proposed_eps_T10quadra_cost_bc1.01.txt"
Set parameter TimeLimit to value 3600
Gurobi Optimizer version 11.0.3 build v11.0.3rc0 (linux64 - "Ubuntu 20.04.6 LTS")

CPU model: AMD EPYC 7532 32-Core Processor, instruction set [SSE2|AVX|AVX2]
Thread count: 64 physical cores, 128 logical processors, using up to 4 threads

Academic license 2399124 - for non-commercial use only - registered to yi___@ed.ac.uk
Optimize a model with 23642 rows, 12452 columns and 550191 nonzeros
Model fingerprint: 0xc0591cc4
Model has 1001 quadratic constraints
Variable types: 11452 continuous, 1000 integer (1000 binary)
Coefficient statistics:
  Matrix range     [3e-04, 3e+03]
  QMatrix range    [2e-03, 5e+01]
  QLMatrix range   [2e-02, 6e+01]
  Objective range  [1e+00, 1e+00]
  Bounds range     [1e-01, 1e+00]
  RHS range        [1e+00, 2e+05]
  QRHS range       [5e+00, 5e+00]
Presolve removed 17671 rows and 4513 columns
Presolve time: 0.18s
Presolved: 6973 rows, 8939 columns, 36254 nonzeros
Presolved model has 1000 quadratic constraint(s)
Presolved model has 1 bilinear constraint(s)

Solving non-convex MIQCP

Variable types: 7937 continuous, 1002 integer (1002 binary)

Root relaxation: objective 1.482226e-03, 9722 iterations, 0.48 seconds (0.64 work units)

    Nodes    |    Current Node    |     Objective Bounds      |     Work
 Expl Unexpl |  Obj  Depth IntInf | Incumbent    BestBd   Gap | It/Node Time

     0     0    0.00148    0   11          -    0.00148      -     -    1s
     0     0    0.00148    0    8          -    0.00148      -     -    1s
     0     0    0.00206    0    8          -    0.00206      -     -    1s
     0     0    0.00206    0    8          -    0.00206      -     -    1s
     0     0    0.00206    0    8          -    0.00206      -     -    1s
     0     0    0.00206    0    8          -    0.00206      -     -    1s
     0     0    0.00206    0    8          -    0.00206      -     -    1s
     0     0    0.00261    0    5          -    0.00261      -     -    1s
H    0     0                       0.0304887    0.00261  91.4%     -    2s
H    0     0                       0.0303974    0.00261  91.4%     -    2s
H    0     0                       0.0289102    0.00261  91.0%     -    2s
     0     2    0.02046    0    9    0.02891    0.02046  29.2%     -    3s
   109   118    0.02081   28    5    0.02891    0.02047  29.2%  14.5    5s
H  206   200                       0.0243885    0.02048  16.0%  29.7    6s
*  206   200              47       0.0243885    0.02048  16.0%  29.7    6s
H  306   248                       0.0239590    0.02048  14.5%  24.2    6s
*  306   248              71       0.0239590    0.02048  14.5%  24.2    6s
   439   352    0.02367   55   10    0.02396    0.02227  7.05%  20.1   10s
H  445   338                       0.0228389    0.02227  2.49%  19.8   13s
   448   342    0.02284   38    4    0.02284    0.02227  2.49%  46.7   15s
H  455   328                       0.0227074    0.02239  1.41%  46.0   20s
H  460   316                       0.0226304    0.02239  1.07%  68.4   21s
H  465   303                       0.0226159    0.02239  0.99%  67.7   23s
   466   304    0.02239   14   16    0.02262    0.02239  0.99%  67.5   25s
* 1299   432             245       0.0225999    0.02249  0.47%  35.0   27s
* 1450   314             314       0.0225993    0.02249  0.47%  32.1   27s
* 1954   596             175       0.0225993    0.02253  0.32%  24.3   28s
* 2537   427             143       0.0225979    0.02253  0.31%  19.2   29s

Cutting planes:
  Gomory: 4
  Lift-and-project: 4
  Implied bound: 9
  MIR: 4
  Flow cover: 10
  Inf proof: 2
  RLT: 5

Explored 2672 nodes (59863 simplex iterations) in 29.20 seconds (25.52 work units)
Thread count was 4 (of 128 available processors)

Solution count 10: 0.0225979 0.0225993 0.0225993 ... 0.0243885

Optimal solution found (tolerance 1.00e-03)
Best objective 2.259790147932e-02, best bound 2.259615453456e-02, gap 0.0077%
